========================================================== 
File name: C:\DEGR\assets\definitions\MSRCPSP_Gen\100_40_512_10_C.def
Creation date: Wed May 03 10:44:20 CEST 2023
Website: http://imopse.ii.pwr.edu.pl/ 
Reference: 
Myszkowski P. B., Skowronski M. E., Olech L., Oslizlo K., 
Hybrid Ant Colony Optimization in solving Multi-Skill Resource-Constrained Project Scheduling Problem, 
Soft Computing, DOI: DOI 10.1007/s00500-014-1455-x 
========================================================== 
General characteristics: 
Tasks: 100
Resources: 40
Precedence relations: 486
Number of skill types: 10
========================================================== 
ResourceID 	 Salary 	 Skills 
1	 	 	70.5	 	 Q1: 3 	  Q2: 2 	  Q4: 0 	  Q9: 1 	  Q5: 1 	  Q8: 1 	  Q0: 2 	  Q6: 0 	 
2	 	 	12.2	 	 Q5: 2 	  Q8: 2 	  Q1: 0 	  Q7: 0 	  Q9: 0 	  Q3: 1 	  Q2: 1 	  Q6: 2 	 
3	 	 	60.6	 	 Q3: 1 	 
4	 	 	60.9	 	 Q0: 0 	  Q4: 0 	  Q9: 2 	 
5	 	 	51.9	 	 Q6: 0 	  Q8: 0 	  Q1: 3 	  Q5: 1 	  Q2: 3 	  Q0: 1 	  Q3: 1 	 
6	 	 	89.3	 	 Q7: 2 	  Q4: 1 	  Q5: 1 	  Q8: 2 	  Q0: 3 	  Q3: 3 	  Q9: 1 	  Q1: 3 	 
7	 	 	16.0	 	 Q0: 2 	  Q8: 0 	  Q6: 3 	  Q5: 0 	  Q1: 1 	  Q3: 0 	  Q2: 2 	  Q7: 1 	  Q4: 2 	 
8	 	 	93.9	 	 Q2: 3 	  Q0: 0 	  Q8: 1 	  Q1: 3 	  Q7: 3 	 
9	 	 	42.3	 	 Q5: 3 	  Q1: 2 	  Q6: 0 	  Q3: 2 	  Q2: 2 	  Q7: 2 	  Q4: 0 	 
10	 	 	72.6	 	 Q2: 3 	  Q9: 0 	  Q7: 3 	 
11	 	 	27.0	 	 Q3: 0 	  Q4: 3 	  Q5: 0 	  Q7: 0 	  Q9: 0 	  Q6: 2 	 
12	 	 	72.3	 	 Q4: 3 	  Q1: 0 	  Q0: 3 	 
13	 	 	18.5	 	 Q3: 0 	  Q6: 1 	  Q0: 0 	  Q7: 2 	  Q9: 1 	  Q2: 3 	  Q5: 3 	 
14	 	 	81.5	 	 Q6: 1 	  Q5: 3 	  Q9: 1 	  Q2: 2 	  Q8: 1 	  Q1: 1 	  Q3: 3 	  Q4: 0 	 
15	 	 	31.0	 	 Q5: 3 	  Q7: 1 	 
16	 	 	56.8	 	 Q9: 3 	  Q4: 0 	  Q8: 0 	  Q3: 2 	  Q6: 2 	  Q2: 0 	  Q1: 1 	  Q5: 0 	 
17	 	 	67.8	 	 Q6: 3 	  Q5: 2 	  Q8: 3 	  Q4: 3 	 
18	 	 	80.8	 	 Q0: 2 	  Q9: 1 	  Q7: 3 	  Q2: 0 	  Q6: 2 	  Q3: 3 	 
19	 	 	83.0	 	 Q9: 1 	  Q1: 0 	  Q0: 2 	  Q4: 1 	  Q8: 2 	  Q5: 2 	  Q3: 1 	 
20	 	 	51.5	 	 Q5: 1 	  Q6: 1 	  Q3: 2 	  Q7: 3 	 
21	 	 	31.8	 	 Q9: 2 	  Q0: 0 	  Q7: 3 	  Q6: 1 	  Q5: 0 	  Q8: 2 	  Q2: 0 	 
22	 	 	38.5	 	 Q6: 1 	  Q9: 2 	 
23	 	 	13.2	 	 Q7: 1 	  Q1: 3 	  Q2: 2 	  Q9: 1 	 
24	 	 	42.9	 	 Q7: 0 	  Q1: 3 	  Q0: 3 	  Q4: 3 	  Q2: 2 	 
25	 	 	45.1	 	 Q3: 3 	  Q8: 1 	  Q1: 3 	  Q2: 1 	  Q9: 3 	 
26	 	 	58.8	 	 Q4: 3 	  Q6: 0 	  Q5: 3 	  Q1: 0 	  Q7: 1 	 
27	 	 	54.6	 	 Q7: 0 	  Q1: 1 	 
28	 	 	66.8	 	 Q1: 0 	  Q0: 0 	  Q9: 0 	  Q7: 0 	  Q5: 3 	  Q4: 3 	  Q3: 0 	  Q2: 3 	  Q6: 1 	 
29	 	 	10.7	 	 Q9: 0 	  Q7: 2 	  Q2: 3 	 
30	 	 	46.0	 	 Q3: 0 	  Q2: 2 	  Q9: 2 	  Q4: 2 	  Q8: 1 	  Q7: 1 	 
31	 	 	41.8	 	 Q2: 1 	  Q6: 3 	  Q7: 2 	  Q8: 3 	  Q1: 1 	  Q9: 1 	  Q4: 1 	  Q0: 2 	 
32	 	 	87.5	 	 Q4: 3 	  Q0: 3 	  Q8: 1 	  Q7: 1 	  Q5: 1 	  Q1: 0 	  Q6: 3 	  Q3: 0 	  Q2: 1 	 
33	 	 	84.2	 	 Q9: 3 	  Q7: 3 	  Q0: 1 	  Q1: 0 	  Q8: 2 	  Q2: 2 	  Q5: 0 	  Q6: 3 	  Q3: 3 	 
34	 	 	83.2	 	 Q4: 1 	  Q1: 1 	  Q6: 2 	  Q0: 1 	 
35	 	 	43.3	 	 Q4: 2 	  Q8: 0 	  Q7: 1 	  Q0: 3 	  Q9: 2 	 
36	 	 	46.6	 	 Q9: 2 	  Q8: 1 	  Q2: 2 	  Q7: 1 	  Q6: 3 	  Q0: 2 	  Q4: 1 	 
37	 	 	66.6	 	 Q2: 1 	  Q0: 0 	  Q8: 2 	  Q7: 2 	  Q3: 2 	  Q4: 1 	 
38	 	 	20.9	 	 Q7: 1 	  Q8: 0 	  Q2: 2 	 
39	 	 	43.5	 	 Q5: 3 	  Q0: 3 	 
40	 	 	10.0	 	 Q3: 1 	  Q0: 1 	  Q5: 1 	  Q4: 1 	  Q9: 1 	  Q1: 1 	 
========================================================== 
TaskID 	 Duration 	 Skill 	 Predecessor IDs 
1	31	Q5:	0
2	12	Q7:	3
3	38	Q1:	0	2
4	31	Q9:	1
5	35	Q8:	0
6	19	Q0:	3
7	11	Q6:	1	6
8	23	Q4:	2	1
9	12	Q2:	3	8
10	18	Q7:	2	7
11	18	Q5:	0
12	40	Q4:	0
13	22	Q4:	0	7
14	27	Q6:	2	3	4
15	28	Q2:	2	9	7
16	28	Q6:	3	14
17	22	Q9:	1	9	14
18	9	Q7:	1	3
19	11	Q6:	0	1	15
20	33	Q5:	1	19
21	14	Q4:	3	15
22	18	Q3:	0	4
23	13	Q5:	1	15
24	22	Q7:	1	20	5	11	12
25	15	Q1:	2	16	19
26	36	Q4:	1	22	10
27	27	Q7:	1	12	23	6	11	2
28	11	Q7:	1	8
29	10	Q8:	3	26	23	17
30	38	Q8:	0	19	7	25	27
31	16	Q2:	0	27
32	23	Q1:	3	18	21	7	10	3
33	37	Q1:	1	26	16	23	6	11	3
34	16	Q2:	1	14	20
35	26	Q4:	3
36	18	Q7:	1
37	37	Q7:	0	33	9
38	37	Q9:	1	8	34
39	22	Q8:	1
40	10	Q4:	2	17	6	24	8
41	18	Q6:	0	15	31	2	34	25
42	15	Q9:	2	30	5	25	4	21	23
43	23	Q3:	0	14	42	39	18
44	19	Q7:	2	24	13	27	29	3	4	18
45	37	Q1:	1	21	10	18	17
46	25	Q1:	2	6	27	38	30
47	25	Q0:	3	10	36	46	12	32	17	4
48	30	Q5:	0	34	3	30	2	4
49	30	Q7:	2	15	35	24	17	18
50	21	Q7:	2	3	16	30
51	24	Q5:	0	5	13
52	28	Q4:	0	48	8	30	40	5	19	9
53	13	Q2:	1	48	40	14	37	13	29	5
54	11	Q6:	2	30	43	8	20	9	42	50	29	35
55	35	Q7:	0	14	12	25	26	16	34	32	20	43
56	35	Q9:	3	7	32	23	45	4	19	48	39	2	20
57	25	Q1:	3	18	8	36	50	51
58	40	Q0:	2	46	42	20
59	22	Q7:	2	8	4	35	24	47	18
60	27	Q2:	0	30	48	24	55
61	18	Q8:	3	9	57	7
62	33	Q4:	1	24	33	55	42	41
63	17	Q6:	2	53	50	23	20
64	36	Q5:	2	21	22
65	38	Q0:	0	18	7	8	41	24	10	21	23	6	54
66	23	Q9:	1	39	64	48	34	23	14	56	60	43
67	17	Q4:	1	28	39	43	48	3	22	61	21
68	23	Q8:	2	39	52	30	1	7	46	32	62	56
69	31	Q1:	0	29	34	48	37	20	28	8	58	47
70	36	Q2:	3	13	63	8	11	37	60	23	9	53
71	16	Q5:	2	8	9	13	28
72	27	Q6:	2	30	54	62	43	59	39	2	7	22
73	20	Q9:	1	11	59	43	18	38	3	61
74	24	Q4:	1	59	31	25	7	29	2
75	20	Q5:	0	9	29	44	32
76	29	Q9:	0	19	45	72	10	70
77	23	Q4:	1	21	27	10	2	32	3	14	8	1	7	9	51
78	34	Q4:	0	37	29	1	35	43	25	41	4
79	15	Q5:	0	18	36	61	30	37	2	44	76	57	4
80	30	Q4:	1	27	1	44	4	9	78	57
81	14	Q4:	2	48	75	67	19	51	76
82	36	Q2:	1	60	35	3	31	51	20	66	76
83	9	Q9:	1	14	75	80	21	31	35	60	56	33	34	64
84	30	Q5:	1	82	61	48	31	39	5	62
85	25	Q3:	1	50	82	61	71	10
86	20	Q8:	0	5	48	61	55	43	12	78	67	46	41	63
87	26	Q5:	1	78	60	35	84	76	37	79	25
88	18	Q2:	0	23	50	66	75	13	72	43	58	2
89	40	Q4:	2	29	30	37	10	8	86
90	27	Q3:	3	40	52	7	89	3	26	55	46	64
91	10	Q8:	3	65	31	78	25	48	86	83	41	59
92	29	Q4:	3	31	4	30	27	82	59	69
93	24	Q9:	2	4	61	45	36	40	5	69	23	1	48
94	33	Q9:	2	54	63	66	91	78	8	4
95	21	Q7:	1	45	9	59	90	31	81	87	23	74	20
96	13	Q7:	0	50	55	64	21	41	53	81	56	70
97	15	Q2:	3	7	21	11	40	33	15	70	94	66
98	26	Q8:	3	60	50	42	54	28	49
99	9	Q5:	3	9	55	50	72	91	95	43	45	18	12	4	33
100	33	Q2:	3	31	93	84	99	90	78	27	64	29	89	52	65
========================================================== 